5983 7363
4347 5727
7935 9315
7935 9315
6299 2903
6299 2903
9887 1267
3475 4855
1839 8443
7379 8759
967 2347
9331 5935
2919 4299
6507 7887
4870 1475
4870 1475
8458 9839
2047 3427
2047 3427
410 1790
3998 5378
3998 5378
2362 8967
5950 7330
9538 918
9538 918
7902 4506
7902 4506
1490 2870
5078 6458
3442 4822
7030 8410
7030 8410
5394 1998
4729 362
